0 0 0 0
0 1 0 0
0 2 0 0
0 3 1 0
0 4 2 7
0 5 0 9
0 6 0 2
0 7 0 3
0 8 0 9
0 9 0 5
0 10 2 7
0 11 0 10
0 12 0 6
0 13 0 11
0 14 0 3
0 15 0 10
0 16 0 11
0 17 0 10
0 18 0 12
0 19 0 12
0 20 0 15
0 21 2 12
0 22 0 7
0 23 0 13
0 24 1 4
0 25 0 11
0 26 1 15
0 27 0 13
0 28 2 21
0 29 0 19
0 30 2 11
0 31 0 24
